c strEdges: 125  randomEdges: 504 
c degrees:  1  2 
c girth: Inf max: -43.604516  
c Hgirth mixed MAXCUT instance
c generated from an undirected graph
c to solve unweighted MaxCut
p cnf 140 1258
70 127 0
-70 -127 0
70 73 0
-70 -73 0
123 91 0
-123 -91 0
123 116 0
-123 -116 0
33 32 0
-33 -32 0
33 102 0
-33 -102 0
112 65 0
-112 -65 0
112 2 0
-112 -2 0
109 97 0
-109 -97 0
26 66 0
-26 -66 0
26 110 0
-26 -110 0
4 39 0
-4 -39 0
4 71 0
-4 -71 0
64 108 0
-64 -108 0
64 36 0
-64 -36 0
10 29 0
-10 -29 0
10 139 0
-10 -139 0
121 96 0
-121 -96 0
121 17 0
-121 -17 0
62 72 0
-62 -72 0
62 103 0
-62 -103 0
138 69 0
-138 -69 0
138 125 0
-138 -125 0
51 8 0
-51 -8 0
51 76 0
-51 -76 0
100 2 0
-100 -2 0
38 58 0
-38 -58 0
38 1 0
-38 -1 0
136 128 0
-136 -128 0
131 11 0
-131 -11 0
131 67 0
-131 -67 0
129 119 0
-129 -119 0
129 25 0
-129 -25 0
101 41 0
-101 -41 0
101 90 0
-101 -90 0
85 67 0
-85 -67 0
85 82 0
-85 -82 0
15 115 0
-15 -115 0
42 99 0
-42 -99 0
42 75 0
-42 -75 0
7 19 0
-7 -19 0
7 8 0
-7 -8 0
61 84 0
-61 -84 0
124 75 0
-124 -75 0
124 29 0
-124 -29 0
21 103 0
-21 -103 0
21 24 0
-21 -24 0
79 73 0
-79 -73 0
79 119 0
-79 -119 0
20 120 0
-20 -120 0
20 63 0
-20 -63 0
60 83 0
-60 -83 0
60 16 0
-60 -16 0
104 5 0
-104 -5 0
81 110 0
-81 -110 0
74 76 0
-74 -76 0
53 71 0
-53 -71 0
53 127 0
-53 -127 0
48 80 0
-48 -80 0
48 128 0
-48 -128 0
134 78 0
-134 -78 0
134 80 0
-134 -80 0
54 3 0
-54 -3 0
54 14 0
-54 -14 0
35 43 0
-35 -43 0
35 120 0
-35 -120 0
88 90 0
-88 -90 0
88 84 0
-88 -84 0
92 102 0
-92 -102 0
92 97 0
-92 -97 0
87 12 0
-87 -12 0
87 11 0
-87 -11 0
89 133 0
-89 -133 0
89 106 0
-89 -106 0
56 17 0
-56 -17 0
56 58 0
-56 -58 0
117 46 0
-117 -46 0
117 5 0
-117 -5 0
135 9 0
-135 -9 0
118 63 0
-118 -63 0
118 94 0
-118 -94 0
47 49 0
-47 -49 0
132 77 0
-132 -77 0
132 114 0
-132 -114 0
57 36 0
-57 -36 0
57 22 0
-57 -22 0
31 37 0
-31 -37 0
31 46 0
-31 -46 0
6 116 0
-6 -116 0
6 52 0
-6 -52 0
86 28 0
-86 -28 0
86 12 0
-86 -12 0
34 82 0
-34 -82 0
34 41 0
-34 -41 0
40 16 0
-40 -16 0
40 66 0
-40 -66 0
137 25 0
-137 -25 0
137 91 0
-137 -91 0
111 68 0
-111 -68 0
111 28 0
-111 -28 0
18 113 0
-18 -113 0
122 24 0
-122 -24 0
93 52 0
-93 -52 0
59 106 0
-59 -106 0
59 44 0
-59 -44 0
23 44 0
-23 -44 0
23 9 0
-23 -9 0
30 14 0
-30 -14 0
30 37 0
-30 -37 0
98 140 0
-98 -140 0
98 49 0
-98 -49 0
45 125 0
-45 -125 0
45 83 0
-45 -83 0
107 114 0
-107 -114 0
55 95 0
-55 -95 0
55 115 0
-55 -115 0
126 50 0
-126 -50 0
126 65 0
-126 -65 0
27 94 0
-27 -94 0
27 72 0
-27 -72 0
105 22 0
-105 -22 0
130 139 0
-130 -139 0
130 39 0
-130 -39 0
13 1 0
-13 -1 0
13 43 0
-13 -43 0
117 77 0
-117 -77 0
56 98 0
-56 -98 0
35 106 0
-35 -106 0
91 102 0
-91 -102 0
20 43 0
-20 -43 0
138 66 0
-138 -66 0
73 5 0
-73 -5 0
86 77 0
-86 -77 0
120 140 0
-120 -140 0
137 13 0
-137 -13 0
101 122 0
-101 -122 0
122 114 0
-122 -114 0
51 49 0
-51 -49 0
105 78 0
-105 -78 0
131 90 0
-131 -90 0
49 125 0
-49 -125 0
10 59 0
-10 -59 0
89 103 0
-89 -103 0
59 113 0
-59 -113 0
33 122 0
-33 -122 0
51 79 0
-51 -79 0
67 28 0
-67 -28 0
3 68 0
-3 -68 0
2 16 0
-2 -16 0
55 139 0
-55 -139 0
32 37 0
-32 -37 0
62 13 0
-62 -13 0
7 34 0
-7 -34 0
91 97 0
-91 -97 0
81 41 0
-81 -41 0
29 67 0
-29 -67 0
3 37 0
-3 -37 0
42 139 0
-42 -139 0
32 110 0
-32 -110 0
62 39 0
-62 -39 0
74 63 0
-74 -63 0
138 24 0
-138 -24 0
101 59 0
-101 -59 0
78 52 0
-78 -52 0
33 11 0
-33 -11 0
108 36 0
-108 -36 0
8 44 0
-8 -44 0
73 116 0
-73 -116 0
66 76 0
-66 -76 0
38 111 0
-38 -111 0
64 116 0
-64 -116 0
117 127 0
-117 -127 0
84 22 0
-84 -22 0
64 49 0
-64 -49 0
33 135 0
-33 -135 0
46 116 0
-46 -116 0
35 29 0
-35 -29 0
88 67 0
-88 -67 0
88 103 0
-88 -103 0
121 12 0
-121 -12 0
76 80 0
-76 -80 0
102 36 0
-102 -36 0
101 67 0
-101 -67 0
138 61 0
-138 -61 0
31 95 0
-31 -95 0
104 56 0
-104 -56 0
123 107 0
-123 -107 0
70 66 0
-70 -66 0
109 36 0
-109 -36 0
101 76 0
-101 -76 0
127 58 0
-127 -58 0
116 95 0
-116 -95 0
137 63 0
-137 -63 0
80 114 0
-80 -114 0
90 95 0
-90 -95 0
85 23 0
-85 -23 0
15 22 0
-15 -22 0
89 17 0
-89 -17 0
129 61 0
-129 -61 0
112 90 0
-112 -90 0
100 106 0
-100 -106 0
67 5 0
-67 -5 0
54 11 0
-54 -11 0
2 12 0
-2 -12 0
96 28 0
-96 -28 0
34 94 0
-34 -94 0
18 69 0
-18 -69 0
61 12 0
-61 -12 0
46 52 0
-46 -52 0
60 1 0
-60 -1 0
97 82 0
-97 -82 0
98 103 0
-98 -103 0
107 28 0
-107 -28 0
108 22 0
-108 -22 0
31 32 0
-31 -32 0
64 98 0
-64 -98 0
111 39 0
-111 -39 0
110 82 0
-110 -82 0
81 43 0
-81 -43 0
29 12 0
-29 -12 0
119 28 0
-119 -28 0
20 57 0
-20 -57 0
6 115 0
-6 -115 0
62 132 0
-62 -132 0
97 22 0
-97 -22 0
64 59 0
-64 -59 0
116 82 0
-116 -82 0
123 93 0
-123 -93 0
85 66 0
-85 -66 0
42 97 0
-42 -97 0
105 32 0
-105 -32 0
84 78 0
-84 -78 0
43 94 0
-43 -94 0
11 49 0
-11 -49 0
55 16 0
-55 -16 0
112 62 0
-112 -62 0
74 92 0
-74 -92 0
41 84 0
-41 -84 0
85 79 0
-85 -79 0
132 120 0
-132 -120 0
18 126 0
-18 -126 0
18 115 0
-18 -115 0
83 44 0
-83 -44 0
27 110 0
-27 -110 0
36 28 0
-36 -28 0
103 46 0
-103 -46 0
77 82 0
-77 -82 0
103 49 0
-103 -49 0
69 2 0
-69 -2 0
124 118 0
-124 -118 0
86 5 0
-86 -5 0
7 72 0
-7 -72 0
97 9 0
-97 -9 0
69 68 0
-69 -68 0
40 2 0
-40 -2 0
59 25 0
-59 -25 0
27 11 0
-27 -11 0
34 122 0
-34 -122 0
126 133 0
-126 -133 0
62 80 0
-62 -80 0
115 5 0
-115 -5 0
111 63 0
-111 -63 0
104 72 0
-104 -72 0
70 38 0
-70 -38 0
121 42 0
-121 -42 0
138 99 0
-138 -99 0
77 95 0
-77 -95 0
2 106 0
-2 -106 0
91 99 0
-91 -99 0
92 75 0
-92 -75 0
44 22 0
-44 -22 0
85 118 0
-85 -118 0
48 135 0
-48 -135 0
48 113 0
-48 -113 0
76 37 0
-76 -37 0
123 6 0
-123 -6 0
85 125 0
-85 -125 0
4 99 0
-4 -99 0
74 58 0
-74 -58 0
15 35 0
-15 -35 0
136 14 0
-136 -14 0
98 133 0
-98 -133 0
81 90 0
-81 -90 0
106 114 0
-106 -114 0
137 90 0
-137 -90 0
76 133 0
-76 -133 0
117 105 0
-117 -105 0
32 94 0
-32 -94 0
112 81 0
-112 -81 0
133 82 0
-133 -82 0
79 59 0
-79 -59 0
101 58 0
-101 -58 0
23 46 0
-23 -46 0
91 116 0
-91 -116 0
3 43 0
-3 -43 0
43 139 0
-43 -139 0
109 53 0
-109 -53 0
31 41 0
-31 -41 0
38 39 0
-38 -39 0
4 118 0
-4 -118 0
135 22 0
-135 -22 0
39 106 0
-39 -106 0
33 97 0
-33 -97 0
136 104 0
-136 -104 0
129 132 0
-129 -132 0
56 99 0
-56 -99 0
86 72 0
-86 -72 0
35 83 0
-35 -83 0
137 78 0
-137 -78 0
5 9 0
-5 -9 0
103 106 0
-103 -106 0
134 116 0
-134 -116 0
87 96 0
-87 -96 0
49 77 0
-49 -77 0
131 114 0
-131 -114 0
39 139 0
-39 -139 0
88 87 0
-88 -87 0
10 137 0
-10 -137 0
32 75 0
-32 -75 0
121 87 0
-121 -87 0
40 14 0
-40 -14 0
56 14 0
-56 -14 0
81 27 0
-81 -27 0
57 2 0
-57 -2 0
36 114 0
-36 -114 0
105 39 0
-105 -39 0
48 36 0
-48 -36 0
137 45 0
-137 -45 0
138 75 0
-138 -75 0
20 104 0
-20 -104 0
55 120 0
-55 -120 0
51 88 0
-51 -88 0
60 93 0
-60 -93 0
92 103 0
-92 -103 0
88 115 0
-88 -115 0
5 133 0
-5 -133 0
14 94 0
-14 -94 0
21 54 0
-21 -54 0
74 120 0
-74 -120 0
44 1 0
-44 -1 0
112 76 0
-112 -76 0
54 125 0
-54 -125 0
120 94 0
-120 -94 0
91 44 0
-91 -44 0
66 1 0
-66 -1 0
86 30 0
-86 -30 0
21 125 0
-21 -125 0
29 71 0
-29 -71 0
70 96 0
-70 -96 0
108 139 0
-108 -139 0
4 80 0
-4 -80 0
35 14 0
-35 -14 0
92 130 0
-92 -130 0
13 102 0
-13 -102 0
121 47 0
-121 -47 0
38 72 0
-38 -72 0
122 14 0
-122 -14 0
101 17 0
-101 -17 0
70 117 0
-70 -117 0
9 114 0
-9 -114 0
33 64 0
-33 -64 0
6 95 0
-6 -95 0
21 98 0
-21 -98 0
7 107 0
-7 -107 0
64 61 0
-64 -61 0
45 80 0
-45 -80 0
21 20 0
-21 -20 0
34 99 0
-34 -99 0
124 37 0
-124 -37 0
127 43 0
-127 -43 0
138 11 0
-138 -11 0
48 84 0
-48 -84 0
6 111 0
-6 -111 0
47 69 0
-47 -69 0
100 93 0
-100 -93 0
91 41 0
-91 -41 0
101 86 0
-101 -86 0
51 82 0
-51 -82 0
21 49 0
-21 -49 0
136 137 0
-136 -137 0
105 72 0
-105 -72 0
7 135 0
-7 -135 0
74 57 0
-74 -57 0
109 63 0
-109 -63 0
93 78 0
-93 -78 0
134 3 0
-134 -3 0
67 80 0
-67 -80 0
56 117 0
-56 -117 0
101 18 0
-101 -18 0
110 116 0
-110 -116 0
56 135 0
-56 -135 0
12 113 0
-12 -113 0
42 61 0
-42 -61 0
32 68 0
-32 -68 0
48 75 0
-48 -75 0
112 22 0
-112 -22 0
40 23 0
-40 -23 0
70 115 0
-70 -115 0
123 80 0
-123 -80 0
33 50 0
-33 -50 0
136 60 0
-136 -60 0
35 46 0
-35 -46 0
101 92 0
-101 -92 0
15 99 0
-15 -99 0
78 114 0
-78 -114 0
123 42 0
-123 -42 0
111 139 0
-111 -139 0
56 69 0
-56 -69 0
112 12 0
-112 -12 0
121 25 0
-121 -25 0
42 43 0
-42 -43 0
38 125 0
-38 -125 0
124 28 0
-124 -28 0
101 125 0
-101 -125 0
34 80 0
-34 -80 0
59 126 0
-59 -126 0
31 22 0
-31 -22 0
87 125 0
-87 -125 0
11 68 0
-11 -68 0
107 58 0
-107 -58 0
43 28 0
-43 -28 0
58 95 0
-58 -95 0
64 95 0
-64 -95 0
138 110 0
-138 -110 0
123 75 0
-123 -75 0
92 116 0
-92 -116 0
5 82 0
-5 -82 0
62 120 0
-62 -120 0
132 82 0
-132 -82 0
34 68 0
-34 -68 0
31 11 0
-31 -11 0
77 116 0
-77 -116 0
99 116 0
-99 -116 0
121 105 0
-121 -105 0
123 11 0
-123 -11 0
64 107 0
-64 -107 0
26 106 0
-26 -106 0
33 20 0
-33 -20 0
34 130 0
-34 -130 0
136 31 0
-136 -31 0
72 24 0
-72 -24 0
15 128 0
-15 -128 0
118 28 0
-118 -28 0
136 79 0
-136 -79 0
111 140 0
-111 -140 0
47 116 0
-47 -116 0
62 96 0
-62 -96 0
15 92 0
-15 -92 0
78 16 0
-78 -16 0
129 94 0
-129 -94 0
11 139 0
-11 -139 0
30 11 0
-30 -11 0
132 9 0
-132 -9 0
75 37 0
-75 -37 0
57 9 0
-57 -9 0
47 108 0
-47 -108 0
130 83 0
-130 -83 0
89 71 0
-89 -71 0
53 11 0
-53 -11 0
98 58 0
-98 -58 0
124 5 0
-124 -5 0
55 12 0
-55 -12 0
134 6 0
-134 -6 0
16 106 0
-16 -106 0
120 80 0
-120 -80 0
85 132 0
-85 -132 0
55 72 0
-55 -72 0
100 81 0
-100 -81 0
127 97 0
-127 -97 0
39 84 0
-39 -84 0
117 84 0
-117 -84 0
105 3 0
-105 -3 0
90 9 0
-90 -9 0
85 43 0
-85 -43 0
30 32 0
-30 -32 0
30 72 0
-30 -72 0
5 113 0
-5 -113 0
109 105 0
-109 -105 0
137 36 0
-137 -36 0
59 45 0
-59 -45 0
45 16 0
-45 -16 0
60 40 0
-60 -40 0
127 52 0
-127 -52 0
100 102 0
-100 -102 0
58 14 0
-58 -14 0
63 82 0
-63 -82 0
112 71 0
-112 -71 0
122 102 0
-122 -102 0
42 83 0
-42 -83 0
88 80 0
-88 -80 0
31 66 0
-31 -66 0
96 5 0
-96 -5 0
129 85 0
-129 -85 0
5 37 0
-5 -37 0
129 117 0
-129 -117 0
74 39 0
-74 -39 0
100 97 0
-100 -97 0
33 116 0
-33 -116 0
29 8 0
-29 -8 0
72 76 0
-72 -76 0
2 25 0
-2 -25 0
54 25 0
-54 -25 0
61 54 0
-61 -54 0
69 133 0
-69 -133 0
79 96 0
-79 -96 0
138 32 0
-138 -32 0
101 15 0
-101 -15 0
60 87 0
-60 -87 0
93 98 0
-93 -98 0
65 9 0
-65 -9 0
136 7 0
-136 -7 0
79 120 0
-79 -120 0
72 3 0
-72 -3 0
25 44 0
-25 -44 0
33 29 0
-33 -29 0
123 9 0
-123 -9 0
67 44 0
-67 -44 0
37 16 0
-37 -16 0
61 88 0
-61 -88 0
119 75 0
-119 -75 0
87 65 0
-87 -65 0
55 133 0
-55 -133 0
11 14 0
-11 -14 0
60 57 0
-60 -57 0
105 50 0
-105 -50 0
61 90 0
-61 -90 0
118 95 0
-118 -95 0
60 115 0
-60 -115 0
82 52 0
-82 -52 0
57 90 0
-57 -90 0
66 125 0
-66 -125 0
74 49 0
-74 -49 0
29 58 0
-29 -58 0
4 100 0
-4 -100 0
135 16 0
-135 -16 0
112 110 0
-112 -110 0
15 45 0
-15 -45 0
109 111 0
-109 -111 0
5 28 0
-5 -28 0
117 94 0
-117 -94 0
137 128 0
-137 -128 0
74 31 0
-74 -31 0
6 11 0
-6 -11 0
130 1 0
-130 -1 0
14 50 0
-14 -50 0
105 25 0
-105 -25 0
38 103 0
-38 -103 0
76 24 0
-76 -24 0
105 77 0
-105 -77 0
134 12 0
-134 -12 0
100 3 0
-100 -3 0
85 31 0
-85 -31 0
60 95 0
-60 -95 0
123 96 0
-123 -96 0
11 67 0
-11 -67 0
39 113 0
-39 -113 0
75 46 0
-75 -46 0
39 49 0
-39 -49 0
102 14 0
-102 -14 0
35 65 0
-35 -65 0
101 65 0
-101 -65 0
140 22 0
-140 -22 0
56 93 0
-56 -93 0
4 127 0
-4 -127 0
2 139 0
-2 -139 0
46 44 0
-46 -44 0
67 19 0
-67 -19 0
85 32 0
-85 -32 0
42 22 0
-42 -22 0
21 116 0
-21 -116 0
97 44 0
-97 -44 0
84 83 0
-84 -83 0
20 106 0
-20 -106 0
10 91 0
-10 -91 0
136 113 0
-136 -113 0
89 84 0
-89 -84 0
81 111 0
-81 -111 0
48 23 0
-48 -23 0
119 36 0
-119 -36 0
140 94 0
-140 -94 0
24 14 0
-24 -14 0
48 111 0
-48 -111 0
18 94 0
-18 -94 0
129 71 0
-129 -71 0
48 77 0
-48 -77 0
53 96 0
-53 -96 0
111 120 0
-111 -120 0
112 92 0
-112 -92 0
93 80 0
-93 -80 0
85 103 0
-85 -103 0
124 39 0
-124 -39 0
89 45 0
-89 -45 0
28 114 0
-28 -114 0
89 16 0
-89 -16 0
35 68 0
-35 -68 0
61 122 0
-61 -122 0
29 139 0
-29 -139 0
65 108 0
-65 -108 0
37 113 0
-37 -113 0
129 23 0
-129 -23 0
39 115 0
-39 -115 0
59 95 0
-59 -95 0
87 140 0
-87 -140 0
100 107 0
-100 -107 0
36 14 0
-36 -14 0
55 78 0
-55 -78 0
54 36 0
-54 -36 0
8 140 0
-8 -140 0
81 59 0
-81 -59 0
91 9 0
-91 -9 0
64 131 0
-64 -131 0
85 137 0
-85 -137 0
6 39 0
-6 -39 0
41 90 0
-41 -90 0
61 46 0
-61 -46 0
42 39 0
-42 -39 0
71 37 0
-71 -37 0
38 83 0
-38 -83 0
40 1 0
-40 -1 0
38 98 0
-38 -98 0
48 68 0
-48 -68 0
60 106 0
-60 -106 0
73 43 0
-73 -43 0
58 139 0
-58 -139 0
132 18 0
-132 -18 0
104 12 0
-104 -12 0
107 55 0
-107 -55 0
78 106 0
-78 -106 0
84 17 0
-84 -17 0
